103038
1,10,29,64,73,45,80,62,70,14,67,76,26,36,66,20,9,77,58,74,32,40,82,75,11,16,33,27,7,17,56,51,72,81,60,47,49,34,57,43,3,12,23,55,42,25,15,69,78,61,6,79,30,2,38,35,28,8,83,63,39,41,52,50,65,4,53,59,68,44,22,5,19,31,24,48,21,71,54,46,13,18,37,1